Water Network: d13_modena.dat
*******************************************************************************

-------------------------------- Solving with gurobi --------------------------
min_demand: 0
max_demand: 0.00947
max_flow: 0.4069399999999997
eps: 3.919527346039423e-08 

Gurobi 12.0.1: Set parameter LogToConsole to value 1
  tech:outlev = 1
Set parameter Presolve to value 1
  pre:solve = 1
Set parameter TimeLimit to value 3600
  lim:time = 3600
Set parameter Method to value 2
  alg:method = 2
  alg:start = 1
Set parameter BarConvTol to value 1e-09
  bar:convtol = 1e-09
Set parameter FeasibilityTol to value 1e-05
  alg:feastol = 1e-05
  sol:chk:feastolrel = 0
Set parameter MIPGap to value 1e-09
  mip:gap = 1e-09

AMPL MP initial flat model has 4706 variables (0 integer, 0 binary);
Objectives: 1 linear; 
Constraints:  585 linear; 1268 quadratic;
Algebraic expressions:  317 div; 634 powconstexp;

AMPL MP final model has 6925 variables (0 integer, 0 binary);
Objectives: 1 linear; 
Constraints:  902 linear; 1268 quadratic;
Algebraic expressions:  317 div; 634 powconstexp;


Set parameter InfUnbdInfo to value 1
Gurobi Optimizer version 12.0.1 build v12.0.1rc0 (linux64 - "Debian GNU/Linux 12 (bookworm)")

CPU model: AMD Ryzen Threadripper PRO 5975WX 32-Cores, instruction set [SSE2|AVX|AVX2]
Thread count: 32 physical cores, 64 logical processors, using up to 32 threads

Non-default parameters:
TimeLimit  3600
FeasibilityTol  1e-05
MIPGap  1e-09
Method  2
BarConvTol  1e-09
InfUnbdInfo  1
Presolve  1

Optimize a model with 902 rows, 6925 columns and 5698 nonzeros
Model fingerprint: 0x41cbe193
Model has 317 general nonlinear constraints (9827 nonlinear terms)
Variable types: 6925 continuous, 0 integer (0 binary)
Coefficient statistics:
  Matrix range     [1e+00, 1e+00]
  Objective range  [3e+01, 4e+02]
  Bounds range     [2e-08, 3e+11]
  RHS range        [1e-05, 1e+03]
Warning: Model contains large bounds
         Consider reformulating model or setting NumericFocus parameter
         to avoid numerical issues.
Presolve model has 317 nlconstr
Added 11095 variables to disaggregate expressions.
Presolve removed 3 rows and 1905 columns
Presolve time: 0.14s
Presolved: 32916 rows, 16116 columns, 83991 nonzeros
Presolved model has 5072 bilinear constraint(s)
Presolved model has 951 nonlinear constraint(s)

Solving non-convex MINLP

Variable types: 16116 continuous, 0 integer (0 binary)
Root barrier log...

Ordering time: 0.00s

Barrier statistics:
 AA' NZ     : 1.335e+03
 Factor NZ  : 5.191e+03
 Factor Ops : 7.142e+04 (less than 1 second per iteration)
 Threads    : 1

                  Objective                Residual
Iter       Primal          Dual         Primal    Dual     Compl     Time
   0   1.98902961e+06 -4.72991443e+11  3.00e+10 0.00e+00  9.97e+08     4s
   1   1.98902961e+06 -2.95991724e+11  6.41e+09 2.31e-03  3.37e+08     4s
   2   1.98902961e+06 -8.36443939e+09  3.51e+06 6.21e-05  7.22e+06     4s
   3   1.98902961e+06 -5.88673775e+06  3.12e+03 6.77e-07  7.21e+03     4s
   4   1.98902961e+06  1.98080303e+06  2.87e-01 8.37e-10  7.19e+00     4s
   5   1.98902961e+06  1.98902069e+06  3.81e-06 3.88e-13  7.68e-03     4s
   6   1.98902961e+06  1.98902960e+06  3.81e-06 3.96e-16  7.68e-06     4s
   7   1.98902961e+06  1.98902961e+06  3.81e-06 2.23e-18  7.68e-09     4s
   8   1.98902961e+06  1.98902961e+06  3.81e-06 2.14e-18  7.68e-12     4s
   9   1.98902961e+06  1.98902961e+06  3.81e-06 2.17e-18  7.68e-18     4s
  10   1.98902961e+06  1.98902961e+06  3.81e-06 2.44e-18  6.10e-21     4s
  11   1.98902961e+06  1.98902961e+06  3.81e-06 2.23e-18  6.10e-21     4s
  12   1.98902961e+06 -4.72991443e+11  3.00e+10 0.00e+00  9.97e+08     4s
  13   1.98902961e+06 -9.73427423e+10  2.41e+09 4.27e-03  1.51e+08     4s
  14   1.98902961e+06 -2.52387862e+09  9.36e+05 2.18e-03  2.99e+06     4s
  15   1.98902961e+06  1.88055235e+06  2.55e+01 4.56e-07  1.49e+02     4s
  16   1.98902961e+06  1.98902631e+06  7.75e-04 3.53e-11  1.17e-02     4s
  17   1.98902961e+06  1.98902961e+06  8.82e-06 1.62e-14  1.17e-05     4s
  18   1.98902961e+06  1.98902961e+06  4.41e-06 1.55e-17  1.17e-08     4s
  19   1.98902961e+06  1.98902961e+06  4.41e-06 2.12e-18  1.17e-11     4s
  20   1.98902961e+06  1.98902961e+06  4.41e-06 1.80e-18  1.87e-17     4s
  21   1.98902961e+06  1.98902961e+06  4.41e-06 2.09e-18  1.89e-20     4s
  22   1.98902961e+06  1.98902961e+06  4.41e-06 1.66e-18  3.35e-21     4s
  23   1.98902961e+06  1.98902961e+06  2.21e-06 1.18e-18  3.34e-21     4s
  24   1.98902961e+06  1.98902961e+06  4.41e-06 1.08e-18  3.34e-21     4s

Barrier solved model in 24 iterations and 4.37 seconds (0.66 work units)
Optimal objective 1.98902961e+06

Warning: Markowitz tolerance tightened to 0.5
Extra simplex iterations after uncrush: 317

Root relaxation: objective 1.989030e+06, 694 iterations, 0.04 seconds (0.04 work units)

    Nodes    |    Current Node    |     Objective Bounds      |     Work
 Expl Unexpl |  Obj  Depth IntInf | Incumbent    BestBd   Gap | It/Node Time

     0     0 1989029.61    0 1551          - 1989029.61      -     -    4s
     0     0 1989029.61    0 1540          - 1989029.61      -     -    4s
     0     0 1989029.61    0 1537          - 1989029.61      -     -    4s
     0     0 1989029.61    0 1523          - 1989029.61      -     -    4s
     0     0 1989029.61    0 1506          - 1989029.61      -     -    4s
     0     0 1989029.61    0 1502          - 1989029.61      -     -    4s
     0     0 1989029.61    0 1502          - 1989029.61      -     -    5s
     0     0 1989029.61    0 1475          - 1989029.61      -     -   12s
     0     2 1989029.61    0 1475          - 1989029.61      -     -  347s
     1     5 1989029.61    1 1391          - 1989029.61      -  1129  439s
     3     6 1989029.61    2 1408          - 1989029.61      -   390  490s
     7    12 1989029.61    3 1366          - 1989029.61      -   218  645s
    13    24 1989029.61    4 1345          - 1989029.61      -   294  767s
    25    48 1989029.61    5 1357          - 1989029.61      -   180  941s
    49    80 1989029.61    6 1344          - 1989029.61      -   206 1088s
    81   175 1989029.61    7 1341          - 1989029.61      -   178 1394s
   178   366 1989029.61    9 1357          - 1989029.61      -   179 1906s
   369   779 1989029.61   12 1363          - 1989029.61      -   150 2642s
   782  1919 1989029.61   18 1373          - 1989029.61      -   138 3600s

Cutting planes:
  RLT: 164

Explored 1946 nodes (334560 simplex iterations) in 3600.18 seconds (170.72 work units)
Thread count was 32 (of 64 available processors)

Solution count 0

Time limit reached
Best objective -, best bound 1.989029607100e+06, gap -
Gurobi 12.0.1: time limit, without a feasible solution
334560 simplex iterations
24 barrier iterations
1946 branching nodes
*******************************************************************************

Constraints violation:


Sum of constraints violation: 86955.59093999991
*******************************************************************************

*******************************************************************************

Constraint 2 violations:


Sum of violation of original con2: 149.0
Sum of violation of approx con2: 149.0
*******************************************************************************

Absolute and relative violations between original and approximation constraint 2:


Con2 sum of absolute violation: 0.0
Con2 sum of relative violation: 0.0
*******************************************************************************

Total cost using gurobi: 0.0
gurobi solve time: 3600.82 seconds
*******************************************************************************

